
Gurobi 6.5.2 (win64) logging started 07/24/16 17:47:24


Gurobi 6.5.2 (win64) logging started 07/24/16 17:47:24

Optimize a model with 3918 rows, 767 columns and 9818 nonzeros
Coefficient statistics:
  Matrix range    [6e-08, 5e+02]
  Objective range [1e+00, 1e+00]
  Bounds range    [1e+00, 1e+00]
  RHS range       [6e-06, 2e+03]
Presolve removed 3251 rows and 99 columns
Presolve time: 0.03s
Presolved: 667 rows, 668 columns, 3356 nonzeros
Variable types: 285 continuous, 383 integer (383 binary)

Root relaxation: objective 1.842022e+01, 1598 iterations, 0.05 seconds

    Nodes    |    Current Node    |     Objective Bounds      |     Work
 Expl Unexpl |  Obj  Depth IntInf | Incumbent    BestBd   Gap | It/Node Time

     0     0   18.42022    0   82          -   18.42022      -     -    0s
H    0     0                     255.2228174   18.42022  92.8%     -    0s
     0     0   19.35753    0   86  255.22282   19.35753  92.4%     -    0s
H    0     0                      19.9142880   19.35753  2.80%     -    0s
     0     0   19.36686    0   56   19.91429   19.36686  2.75%     -    0s
H    0     0                      19.9037369   19.36686  2.70%     -    0s
     0     0   19.72310    0   59   19.90374   19.72310  0.91%     -    0s
     0     0   19.72310    0   47   19.90374   19.72310  0.91%     -    0s
     0     0   19.72310    0   57   19.90374   19.72310  0.91%     -    0s
     0     0   19.72596    0   54   19.90374   19.72596  0.89%     -    0s
H    0     0                      19.8762595   19.72596  0.76%     -    0s
     0     0   19.72599    0   52   19.87626   19.72599  0.76%     -    0s
     0     0   19.72599    0   52   19.87626   19.72599  0.76%     -    0s
     0     2   19.72599    0   52   19.87626   19.72599  0.76%     -    0s
*   21     0              14      19.8606558   19.77505  0.43%   8.8    0s
*  173    11              11      19.8495133   19.77775  0.36%   5.0    0s

Cutting planes:
  MIR: 15

Explored 284 nodes (3784 simplex iterations) in 0.30 seconds
Thread count was 8 (of 8 available processors)

Optimal solution found (tolerance 1.00e-04)
Best objective 1.984951330177e+01, best bound 1.984951330177e+01, gap 0.0%

Wrote requested result file 'H1\instance26\\Results26E_Sol6.lp'

